Route #1: 75 6 51 16 3 44 32 9 39 72 40
Route #2: 12 58 10 31 55 25 50 18 24 49 56 23
Route #3: 1 43 41 42 64 22 61 28 74 48 5 29
Route #4: 21 47 36 69 71 60 70 20 37 15 57 13 54 19
Route #5: 53 11 38 65 66 59 14 35 8
Route #6: 46 52 27 45 30 2 62 73 63 33 68
Route #7: 4 34 67 7 26 17
Cost 761